letting n =  10
letting blocks =  [[1, 2], [1, 3], [1, 4], [1, 6], [1, 8], [1, 10], [2, 3], [3, 3], [3, 4], [3, 7], [3, 9], [4, 5], [4, 7], [4, 8], [5, 1], [5, 6], [5, 9], [5, 10], [6, 2], [6, 3], [6, 4], [6, 8], [7, 2], [7, 4], [7, 5], [7, 7], [7, 8], [7, 9], [8, 4], [8, 5], [8, 9], [8, 10], [9, 2], [9, 5], [9, 9], [10, 1], [10, 4], [10, 9]]
